45
1 0 8
2 0 30
2 1 11
3 0 28
3 1 30
3 2 1
4 0 27
4 1 4
4 2 21
4 3 11
5 0 5
5 1 19
5 2 6
5 3 25
5 4 1
6 0 21
6 1 25
6 2 14
6 3 15
6 4 17
6 5 4
7 0 2
7 1 28
7 2 25
7 3 9
7 4 4
7 5 23
7 6 6
8 0 6
8 1 16
8 2 13
8 3 28
8 4 12
8 5 13
8 6 24
8 7 29
9 0 18
9 1 24
9 2 16
9 3 27
9 4 30
9 5 12
9 6 3
9 7 26
9 8 28
10 0 21
10 1 2
10 2 26
10 3 22
10 4 12
10 5 17
10 6 2
10 7 2
10 8 31
10 9 4
11 0 28
11 1 11
11 2 22
11 3 7
11 4 18
11 5 28
11 6 30
11 7 21
11 8 19
11 9 3
11 10 27
12 0 19
12 1 25
12 2 24
12 3 15
12 4 6
12 5 9
12 6 6
12 7 6
12 8 30
12 9 20
12 10 27
12 11 1
13 0 11
13 1 10
13 2 18
13 3 24
13 4 3
13 5 5
13 6 24
13 7 12
13 8 15
13 9 4
13 10 28
13 11 9
13 12 9
14 0 25
14 1 16
14 2 27
14 3 15
14 4 26
14 5 9
14 6 26
14 7 17
14 8 8
14 9 26
14 10 11
14 11 8
14 12 8
14 13 22
15 0 11
15 1 3
15 2 22
15 3 4
15 4 7
15 5 21
15 6 4
15 7 3
15 8 20
15 9 6
15 10 4
15 11 13
15 12 18
15 13 3
15 14 21
16 0 29
16 1 23
16 2 3
16 3 15
16 4 3
16 5 18
16 6 4
16 7 16
16 8 19
16 9 22
16 10 15
16 11 6
16 12 24
16 13 7
16 14 17
16 15 31
17 0 14
17 1 28
17 2 29
17 3 20
17 4 21
17 5 1
17 6 28
17 7 22
17 8 8
17 9 24
17 10 29
17 11 20
17 12 13
17 13 5
17 14 14
17 15 12
17 16 17
18 0 2
18 1 25
18 2 6
18 3 4
18 4 21
18 5 27
18 6 9
18 7 19
18 8 15
18 9 7
18 10 6
18 11 30
18 12 27
18 13 6
18 14 17
18 15 28
18 16 22
18 17 27
19 0 4
19 1 4
19 2 3
19 3 19
19 4 12
19 5 8
19 6 4
19 7 12
19 8 5
19 9 31
19 10 17
19 11 12
19 12 3
19 13 25
19 14 26
19 15 15
19 16 29
19 17 7
19 18 9
20 0 22
20 1 23
20 2 15
20 3 30
20 4 16
20 5 22
20 6 11
20 7 19
20 8 21
20 9 3
20 10 28
20 11 26
20 12 5
20 13 17
20 14 24
20 15 14
20 16 6
20 17 25
20 18 16
20 19 9
21 0 14
21 1 12
21 2 13
21 3 8
21 4 29
21 5 29
21 6 21
21 7 15
21 8 3
21 9 15
21 10 3
21 11 18
21 12 11
21 13 4
21 14 29
21 15 9
21 16 29
21 17 23
21 18 3
21 19 15
21 20 18
22 0 13
22 1 21
22 2 1
22 3 26
22 4 6
22 5 17
22 6 22
22 7 20
22 8 6
22 9 12
22 10 23
22 11 25
22 12 17
22 13 19
22 14 8
22 15 8
22 16 29
22 17 24
22 18 27
22 19 8
22 20 25
22 21 15
23 0 1
23 1 2
23 2 12
23 3 10
23 4 8
23 5 22
23 6 30
23 7 22
23 8 27
23 9 19
23 10 8
23 11 20
23 12 2
23 13 20
23 14 27
23 15 24
23 16 20
23 17 17
23 18 1
23 19 10
23 20 15
23 21 24
23 22 31
24 0 7
24 1 19
24 2 17
24 3 6
24 4 16
24 5 16
24 6 8
24 7 18
24 8 3
24 9 31
24 10 22
24 11 29
24 12 10
24 13 25
24 14 23
24 15 12
24 16 23
24 17 24
24 18 15
24 19 24
24 20 11
24 21 4
24 22 29
24 23 4
25 0 6
25 1 15
25 2 29
25 3 4
25 4 15
25 5 6
25 6 8
25 7 14
25 8 18
25 9 20
25 10 30
25 11 16
25 12 28
25 13 6
25 14 31
25 15 12
25 16 13
25 17 1
25 18 15
25 19 23
25 20 28
25 21 10
25 22 13
25 23 18
25 24 28
26 0 6
26 1 21
26 2 30
26 3 12
26 4 9
26 5 17
26 6 24
26 7 23
26 8 12
26 9 6
26 10 9
26 11 28
26 12 27
26 13 20
26 14 14
26 15 12
26 16 15
26 17 13
26 18 19
26 19 10
26 20 5
26 21 24
26 22 11
26 23 20
26 24 7
26 25 30
27 0 30
27 1 10
27 2 5
27 3 20
27 4 4
27 5 23
27 6 21
27 7 18
27 8 29
27 9 11
27 10 29
27 11 22
27 12 8
27 13 20
27 14 25
27 15 30
27 16 18
27 17 8
27 18 2
27 19 23
27 20 24
27 21 26
27 22 10
27 23 22
27 24 21
27 25 21
27 26 21
28 0 7
28 1 11
28 2 21
28 3 23
28 4 27
28 5 9
28 6 29
28 7 30
28 8 16
28 9 4
28 10 24
28 11 19
28 12 9
28 13 16
28 14 18
28 15 2
28 16 1
28 17 1
28 18 5
28 19 31
28 20 5
28 21 27
28 22 25
28 23 11
28 24 18
28 25 27
28 26 14
28 27 3
29 0 4
29 1 22
29 2 4
29 3 12
29 4 9
29 5 16
29 6 28
29 7 6
29 8 4
29 9 7
29 10 2
29 11 4
29 12 17
29 13 14
29 14 7
29 15 20
29 16 15
29 17 14
29 18 8
29 19 23
29 20 7
29 21 2
29 22 17
29 23 7
29 24 21
29 25 1
29 26 8
29 27 23
29 28 13
30 0 5
30 1 29
30 2 18
30 3 22
30 4 29
30 5 1
30 6 20
30 7 3
30 8 21
30 9 5
30 10 30
30 11 21
30 12 22
30 13 3
30 14 4
30 15 8
30 16 8
30 17 2
30 18 4
30 19 9
30 20 1
30 21 6
30 22 18
30 23 9
30 24 3
30 25 31
30 26 11
30 27 13
30 28 18
30 29 24
31 0 3
31 1 21
31 2 19
31 3 5
31 4 31
31 5 24
31 6 4
31 7 28
31 8 3
31 9 26
31 10 22
31 11 21
31 12 22
31 13 13
31 14 10
31 15 6
31 16 31
31 17 9
31 18 12
31 19 23
31 20 14
31 21 10
31 22 8
31 23 25
31 24 31
31 25 3
31 26 5
31 27 15
31 28 7
31 29 8
31 30 26
32 0 23
32 1 16
32 2 22
32 3 1
32 4 31
32 5 11
32 6 5
32 7 7
32 8 8
32 9 27
32 10 21
32 11 27
32 12 29
32 13 23
32 14 2
32 15 27
32 16 7
32 17 24
32 18 8
32 19 20
32 20 8
32 21 18
32 22 17
32 23 14
32 24 29
32 25 23
32 26 19
32 27 29
32 28 22
32 29 29
32 30 24
32 31 18
33 0 26
33 1 22
33 2 25
33 3 13
33 4 9
33 5 25
33 6 28
33 7 17
33 8 17
33 9 5
33 10 23
33 11 11
33 12 18
33 13 12
33 14 3
33 15 20
33 16 24
33 17 23
33 18 20
33 19 12
33 20 2
33 21 10
33 22 5
33 23 17
33 24 27
33 25 10
33 26 16
33 27 8
33 28 30
33 29 12
33 30 11
33 31 8
33 32 24
34 0 16
34 1 2
34 2 16
34 3 22
34 4 7
34 5 9
34 6 6
34 7 1
34 8 19
34 9 26
34 10 20
34 11 11
34 12 14
34 13 23
34 14 27
34 15 1
34 16 1
34 17 22
34 18 26
34 19 24
34 20 26
34 21 12
34 22 16
34 23 3
34 24 9
34 25 10
34 26 9
34 27 5
34 28 19
34 29 28
34 30 16
34 31 11
34 32 3
34 33 12
35 0 4
35 1 21
35 2 11
35 3 19
35 4 20
35 5 24
35 6 17
35 7 19
35 8 27
35 9 28
35 10 18
35 11 20
35 12 6
35 13 17
35 14 27
35 15 10
35 16 16
35 17 11
35 18 28
35 19 20
35 20 27
35 21 14
35 22 21
35 23 6
35 24 7
35 25 16
35 26 8
35 27 28
35 28 17
35 29 6
35 30 21
35 31 8
35 32 18
35 33 10
35 34 15
36 0 8
36 1 30
36 2 14
36 3 18
36 4 7
36 5 7
36 6 27
36 7 22
36 8 2
36 9 29
36 10 11
36 11 4
36 12 2
36 13 18
36 14 25
36 15 17
36 16 7
36 17 26
36 18 22
36 19 16
36 20 25
36 21 14
36 22 22
36 23 29
36 24 9
36 25 16
36 26 27
36 27 17
36 28 21
36 29 31
36 30 9
36 31 19
36 32 13
36 33 9
36 34 9
36 35 31
37 0 12
37 1 14
37 2 20
37 3 13
37 4 17
37 5 21
37 6 22
37 7 17
37 8 29
37 9 9
37 10 4
37 11 6
37 12 8
37 13 2
37 14 23
37 15 4
37 16 12
37 17 3
37 18 18
37 19 17
37 20 9
37 21 28
37 22 19
37 23 25
37 24 4
37 25 27
37 26 22
37 27 1
37 28 7
37 29 8
37 30 31
37 31 1
37 32 8
37 33 5
37 34 8
37 35 13
37 36 30
38 0 17
38 1 1
38 2 10
38 3 11
38 4 13
38 5 11
38 6 10
38 7 23
38 8 24
38 9 9
38 10 18
38 11 15
38 12 11
38 13 5
38 14 27
38 15 12
38 16 2
38 17 8
38 18 20
38 19 15
38 20 12
38 21 3
38 22 20
38 23 12
38 24 10
38 25 20
38 26 13
38 27 9
38 28 8
38 29 15
38 30 27
38 31 13
38 32 18
38 33 28
38 34 14
38 35 1
38 36 21
38 37 7
39 0 21
39 1 7
39 2 10
39 3 1
39 4 2
39 5 30
39 6 30
39 7 17
39 8 27
39 9 6
39 10 14
39 11 10
39 12 19
39 13 24
39 14 25
39 15 9
39 16 14
39 17 11
39 18 10
39 19 18
39 20 20
39 21 6
39 22 13
39 23 14
39 24 25
39 25 2
39 26 10
39 27 27
39 28 3
39 29 29
39 30 2
39 31 10
39 32 24
39 33 28
39 34 17
39 35 6
39 36 10
39 37 27
39 38 17
40 0 24
40 1 1
40 2 12
40 3 5
40 4 21
40 5 10
40 6 9
40 7 31
40 8 9
40 9 26
40 10 2
40 11 22
40 12 9
40 13 17
40 14 25
40 15 10
40 16 25
40 17 19
40 18 2
40 19 31
40 20 12
40 21 30
40 22 3
40 23 8
40 24 25
40 25 7
40 26 14
40 27 5
40 28 24
40 29 2
40 30 9
40 31 2
40 32 24
40 33 29
40 34 20
40 35 9
40 36 17
40 37 18
40 38 13
40 39 19
41 0 4
41 1 1
41 2 26
41 3 2
41 4 13
41 5 17
41 6 2
41 7 8
41 8 16
41 9 11
41 10 16
41 11 3
41 12 23
41 13 27
41 14 20
41 15 5
41 16 12
41 17 8
41 18 28
41 19 5
41 20 8
41 21 9
41 22 13
41 23 7
41 24 8
41 25 15
41 26 14
41 27 7
41 28 15
41 29 30
41 30 12
41 31 24
41 32 30
41 33 18
41 34 13
41 35 14
41 36 17
41 37 5
41 38 25
41 39 14
41 40 24
42 0 7
42 1 11
42 2 22
42 3 28
42 4 31
42 5 16
42 6 2
42 7 10
42 8 2
42 9 19
42 10 10
42 11 18
42 12 27
42 13 9
42 14 26
42 15 19
42 16 14
42 17 4
42 18 11
42 19 5
42 20 3
42 21 14
42 22 7
42 23 25
42 24 20
42 25 24
42 26 27
42 27 6
42 28 12
42 29 23
42 30 13
42 31 27
42 32 27
42 33 5
42 34 28
42 35 16
42 36 10
42 37 21
42 38 10
42 39 4
42 40 6
42 41 4
43 0 15
43 1 2
43 2 23
43 3 24
43 4 7
43 5 25
43 6 27
43 7 18
43 8 4
43 9 11
43 10 5
43 11 18
43 12 28
43 13 15
43 14 15
43 15 31
43 16 19
43 17 21
43 18 1
43 19 12
43 20 14
43 21 5
43 22 29
43 23 7
43 24 7
43 25 23
43 26 2
43 27 20
43 28 19
43 29 19
43 30 29
43 31 4
43 32 30
43 33 7
43 34 16
43 35 15
43 36 23
43 37 10
43 38 8
43 39 13
43 40 20
43 41 26
43 42 10
44 0 16
44 1 10
44 2 17
44 3 26
44 4 9
44 5 23
44 6 31
44 7 8
44 8 28
44 9 30
44 10 31
44 11 12
44 12 11
44 13 31
44 14 4
44 15 3
44 16 22
44 17 9
44 18 26
44 19 25
44 20 8
44 21 4
44 22 24
44 23 22
44 24 18
44 25 31
44 26 2
44 27 10
44 28 19
44 29 4
44 30 8
44 31 30
44 32 15
44 33 26
44 34 5
44 35 11
44 36 24
44 37 11
44 38 25
44 39 26
44 40 31
44 41 29
44 42 17
44 43 27
